#===============================================================================
# Created using the Atomic Simulation Environment (ASE)

# Sat Jun  7 21:32:51 2025

#=======================================================
lattice_vector 10.8355999999999995 0.0000000000000000 0.0000000000000000 
lattice_vector 0.0000000000000000 10.8355999999999995 0.0000000000000000 
lattice_vector 0.0000000000000000 0.0000000000000000 16.2533999999999992 
atom 0.0000000000000000 0.0000000000000000 0.0000000000000000 Ce
atom 0.0000000000000000 2.7088999999999999 2.7088999999999999 Ce
atom 2.7088999999999999 0.0000000000000000 2.7088999999999999 Ce
atom 2.7088999999999999 2.7088999999999999 0.0000000000000000 Ce
atom 1.3544499999999999 1.3544499999999999 4.0633499999999998 O
atom 1.3544499999999999 4.0633499999999998 1.3544499999999999 O
atom 4.0633499999999998 1.3544499999999999 1.3544499999999999 O
atom 4.0633499999999998 4.0633499999999998 4.0633499999999998 O
atom 4.0633499999999998 4.0633499999999998 1.3544499999999999 O
atom 4.0633499999999998 1.3544499999999999 4.0633499999999998 O
atom 1.3544499999999999 4.0633499999999998 4.0633499999999998 O
atom 1.3544499999999999 1.3544499999999999 1.3544499999999999 O
atom 0.0000000000000000 0.0000000000000000 5.4177999999999997 Ce
atom 0.0000000000000000 2.7088999999999999 8.1266999999999996 Ce
atom 2.7088999999999999 0.0000000000000000 8.1266999999999996 Ce
atom 2.7088999999999999 2.7088999999999999 5.4177999999999997 Ce
atom 1.3544499999999999 1.3544499999999999 9.4811499999999995 O
atom 1.3544499999999999 4.0633499999999998 6.7722499999999997 O
atom 4.0633499999999998 1.3544499999999999 6.7722499999999997 O
atom 4.0633499999999998 4.0633499999999998 9.4811499999999995 O
atom 4.0633499999999998 4.0633499999999998 6.7722499999999997 O
atom 4.0633499999999998 1.3544499999999999 9.4811499999999995 O
atom 1.3544499999999999 4.0633499999999998 9.4811499999999995 O
atom 1.3544499999999999 1.3544499999999999 6.7722499999999997 O
atom 0.0000000000000000 0.0000000000000000 10.8355999999999995 Ce
atom 0.0000000000000000 2.7088999999999999 13.5444999999999993 Ce
atom 2.7088999999999999 0.0000000000000000 13.5444999999999993 Ce
atom 2.7088999999999999 2.7088999999999999 10.8355999999999995 Ce
atom 1.3544499999999999 1.3544499999999999 14.8989499999999992 O
atom 1.3544499999999999 4.0633499999999998 12.1900499999999994 O
atom 4.0633499999999998 1.3544499999999999 12.1900499999999994 O
atom 4.0633499999999998 4.0633499999999998 14.8989499999999992 O
atom 4.0633499999999998 4.0633499999999998 12.1900499999999994 O
atom 4.0633499999999998 1.3544499999999999 14.8989499999999992 O
atom 1.3544499999999999 4.0633499999999998 14.8989499999999992 O
atom 1.3544499999999999 1.3544499999999999 12.1900499999999994 O
atom 0.0000000000000000 5.4177999999999997 0.0000000000000000 Ce
atom 0.0000000000000000 8.1266999999999996 2.7088999999999999 Ce
atom 2.7088999999999999 5.4177999999999997 2.7088999999999999 Ce
atom 2.7088999999999999 8.1266999999999996 0.0000000000000000 Ce
atom 1.3544499999999999 6.7722499999999997 4.0633499999999998 O
atom 1.3544499999999999 9.4811499999999995 1.3544499999999999 O
atom 4.0633499999999998 6.7722499999999997 1.3544499999999999 O
atom 4.0633499999999998 9.4811499999999995 4.0633499999999998 O
atom 4.0633499999999998 9.4811499999999995 1.3544499999999999 O
atom 4.0633499999999998 6.7722499999999997 4.0633499999999998 O
atom 1.3544499999999999 9.4811499999999995 4.0633499999999998 O
atom 1.3544499999999999 6.7722499999999997 1.3544499999999999 O
atom 0.0000000000000000 5.4177999999999997 5.4177999999999997 Ce
atom 0.0000000000000000 8.1266999999999996 8.1266999999999996 Ce
atom 2.7088999999999999 5.4177999999999997 8.1266999999999996 Ce
atom 2.7088999999999999 8.1266999999999996 5.4177999999999997 Ce
atom 1.3544499999999999 6.7722499999999997 9.4811499999999995 O
atom 1.3544499999999999 9.4811499999999995 6.7722499999999997 O
atom 4.0633499999999998 6.7722499999999997 6.7722499999999997 O
atom 4.0633499999999998 9.4811499999999995 9.4811499999999995 O
atom 4.0633499999999998 9.4811499999999995 6.7722499999999997 O
atom 4.0633499999999998 6.7722499999999997 9.4811499999999995 O
atom 1.3544499999999999 9.4811499999999995 9.4811499999999995 O
atom 1.3544499999999999 6.7722499999999997 6.7722499999999997 O
atom 0.0000000000000000 5.4177999999999997 10.8355999999999995 Ce
atom 0.0000000000000000 8.1266999999999996 13.5444999999999993 Ce
atom 2.7088999999999999 5.4177999999999997 13.5444999999999993 Ce
atom 2.7088999999999999 8.1266999999999996 10.8355999999999995 Ce
atom 1.3544499999999999 6.7722499999999997 14.8989499999999992 O
atom 1.3544499999999999 9.4811499999999995 12.1900499999999994 O
atom 4.0633499999999998 6.7722499999999997 12.1900499999999994 O
atom 4.0633499999999998 9.4811499999999995 14.8989499999999992 O
atom 4.0633499999999998 9.4811499999999995 12.1900499999999994 O
atom 4.0633499999999998 6.7722499999999997 14.8989499999999992 O
atom 1.3544499999999999 9.4811499999999995 14.8989499999999992 O
atom 1.3544499999999999 6.7722499999999997 12.1900499999999994 O
atom 5.4177999999999997 0.0000000000000000 0.0000000000000000 Ce
atom 5.4177999999999997 2.7088999999999999 2.7088999999999999 Ce
atom 8.1266999999999996 0.0000000000000000 2.7088999999999999 Ce
atom 8.1266999999999996 2.7088999999999999 0.0000000000000000 Ce
atom 6.7722499999999997 1.3544499999999999 4.0633499999999998 O
atom 6.7722499999999997 4.0633499999999998 1.3544499999999999 O
atom 9.4811499999999995 1.3544499999999999 1.3544499999999999 O
atom 9.4811499999999995 4.0633499999999998 4.0633499999999998 O
atom 9.4811499999999995 4.0633499999999998 1.3544499999999999 O
atom 9.4811499999999995 1.3544499999999999 4.0633499999999998 O
atom 6.7722499999999997 4.0633499999999998 4.0633499999999998 O
atom 6.7722499999999997 1.3544499999999999 1.3544499999999999 O
atom 5.4177999999999997 0.0000000000000000 5.4177999999999997 Ce
atom 5.4177999999999997 2.7088999999999999 8.1266999999999996 Ce
atom 8.1266999999999996 0.0000000000000000 8.1266999999999996 Ce
atom 8.1266999999999996 2.7088999999999999 5.4177999999999997 Ce
atom 6.7722499999999997 1.3544499999999999 9.4811499999999995 O
atom 6.7722499999999997 4.0633499999999998 6.7722499999999997 O
atom 9.4811499999999995 1.3544499999999999 6.7722499999999997 O
atom 9.4811499999999995 4.0633499999999998 9.4811499999999995 O
atom 9.4811499999999995 4.0633499999999998 6.7722499999999997 O
atom 9.4811499999999995 1.3544499999999999 9.4811499999999995 O
atom 6.7722499999999997 4.0633499999999998 9.4811499999999995 O
atom 6.7722499999999997 1.3544499999999999 6.7722499999999997 O
atom 5.4177999999999997 0.0000000000000000 10.8355999999999995 Ce
atom 5.4177999999999997 2.7088999999999999 13.5444999999999993 Ce
atom 8.1266999999999996 0.0000000000000000 13.5444999999999993 Ce
atom 8.1266999999999996 2.7088999999999999 10.8355999999999995 Ce
atom 6.7722499999999997 1.3544499999999999 14.8989499999999992 O
atom 6.7722499999999997 4.0633499999999998 12.1900499999999994 O
atom 9.4811499999999995 1.3544499999999999 12.1900499999999994 O
atom 9.4811499999999995 4.0633499999999998 14.8989499999999992 O
atom 9.4811499999999995 4.0633499999999998 12.1900499999999994 O
atom 9.4811499999999995 1.3544499999999999 14.8989499999999992 O
atom 6.7722499999999997 4.0633499999999998 14.8989499999999992 O
atom 6.7722499999999997 1.3544499999999999 12.1900499999999994 O
atom 5.4177999999999997 5.4177999999999997 0.0000000000000000 Ce
atom 5.4177999999999997 8.1266999999999996 2.7088999999999999 Ce
atom 8.1266999999999996 5.4177999999999997 2.7088999999999999 Ce
atom 8.1266999999999996 8.1266999999999996 0.0000000000000000 Ce
atom 6.7722499999999997 6.7722499999999997 4.0633499999999998 O
atom 6.7722499999999997 9.4811499999999995 1.3544499999999999 O
atom 9.4811499999999995 6.7722499999999997 1.3544499999999999 O
atom 9.4811499999999995 9.4811499999999995 4.0633499999999998 O
atom 9.4811499999999995 9.4811499999999995 1.3544499999999999 O
atom 9.4811499999999995 6.7722499999999997 4.0633499999999998 O
atom 6.7722499999999997 9.4811499999999995 4.0633499999999998 O
atom 6.7722499999999997 6.7722499999999997 1.3544499999999999 O
atom 5.4177999999999997 5.4177999999999997 5.4177999999999997 Ce
atom 5.4177999999999997 8.1266999999999996 8.1266999999999996 Ce
atom 8.1266999999999996 5.4177999999999997 8.1266999999999996 Ni
atom 8.1266999999999996 8.1266999999999996 5.4177999999999997 Ce
atom 6.7722499999999997 6.7722499999999997 9.4811499999999995 O
atom 6.7722499999999997 9.4811499999999995 6.7722499999999997 O
atom 9.4811499999999995 6.7722499999999997 6.7722499999999997 O
atom 9.4811499999999995 9.4811499999999995 9.4811499999999995 O
atom 9.4811499999999995 9.4811499999999995 6.7722499999999997 O
atom 9.4811499999999995 6.7722499999999997 9.4811499999999995 O
atom 6.7722499999999997 9.4811499999999995 9.4811499999999995 O
atom 6.7722499999999997 6.7722499999999997 6.7722499999999997 O
atom 5.4177999999999997 5.4177999999999997 10.8355999999999995 Ce
atom 5.4177999999999997 8.1266999999999996 13.5444999999999993 Ce
atom 8.1266999999999996 5.4177999999999997 13.5444999999999993 Ce
atom 8.1266999999999996 8.1266999999999996 10.8355999999999995 Ce
atom 6.7722499999999997 6.7722499999999997 14.8989499999999992 O
atom 6.7722499999999997 9.4811499999999995 12.1900499999999994 O
atom 9.4811499999999995 6.7722499999999997 12.1900499999999994 O
atom 9.4811499999999995 9.4811499999999995 14.8989499999999992 O
atom 9.4811499999999995 9.4811499999999995 12.1900499999999994 O
atom 9.4811499999999995 6.7722499999999997 14.8989499999999992 O
atom 6.7722499999999997 9.4811499999999995 14.8989499999999992 O
atom 6.7722499999999997 6.7722499999999997 12.1900499999999994 O
