#=======================================================
# FHI-aims file: ./geometry.in
# Created using the Atomic Simulation Environment (ASE)
# Sat Jan 28 22:47:46 2023
#=======================================================
lattice_vector 5.5869999999999997 0.0000000000000000 0.0000000000000000 
lattice_vector 0.0000000000000000 8.4130000000000003 0.0000000000000000 
lattice_vector -0.0830782985384609 0.0000000000000000 8.0675722492154929 
atom_frac 0.3782473493501237 0.7499999998424269 0.1258725545245435 Al
atom_frac 0.6217526506450536 0.2499999993753014 0.8741274454913543 Al
atom_frac 0.8679040918964946 0.2500000000196470 0.4991171760304125 Al
atom_frac 0.1320959081063270 0.7499999998500326 0.5008828239326302 Al
atom_frac 0.8755268780569452 0.7500000011264535 0.1252976123164667 Al
atom_frac 0.1244731219164122 0.2500000006129817 0.8747023876819582 Al
atom_frac 0.6149348370525591 0.7499999994099575 0.7456050842853096 Al
atom_frac 0.3850651630014654 0.2500000003516434 0.2543949157155490 Al
atom_frac 0.3668357119649057 0.0754272647544335 0.6131093866467562 Al
atom_frac 0.6331642877521093 0.5754272653570603 0.3868906133172610 Al
atom_frac 0.6331642871142370 0.9245727345728795 0.3868906124317718 Al
atom_frac 0.3668357131518624 0.4245727339472704 0.6131093876235635 Al
atom_frac 0.1161247682081807 0.5788028513059345 0.8624635243709300 Al
atom_frac 0.8838752315870813 0.0788028519260399 0.1375364754595174 Al
atom_frac 0.8838752306701109 0.4211971499743858 0.1375364749804562 Al
atom_frac 0.1161247695550091 0.9211971493485860 0.8624635251883842 Al
atom_frac 0.8819570542229171 0.7500000003888763 0.8759950063022894 O
atom_frac 0.1180429457730456 0.2500000009549160 0.1240049937056828 O
atom_frac 0.6117411552081911 0.2499999985183495 0.6401825148291347 O
atom_frac 0.3882588447953608 0.7499999991397497 0.3598174851553144 O
atom_frac 0.3611042271221212 0.7499999996602293 0.8894081045402027 O
atom_frac 0.6388957728829514 0.2500000006846259 0.1105918954663721 O
atom_frac 0.1336992722265744 0.2499999992867858 0.6276015419657033 O
atom_frac 0.8663007277629229 0.7500000000739236 0.3723984580321960 O
atom_frac 0.8875158884698623 0.4058580169848053 0.8981646214797060 O
atom_frac 0.1124841121664927 0.9058580169914833 0.1018353781474467 O
atom_frac 0.1124841110964740 0.5941419842930206 0.1018353775485542 O
atom_frac 0.8875158882552662 0.0941419842953754 0.8981646228430055 O
atom_frac 0.6063860891749238 0.9186433228020863 0.6141933062087530 O
atom_frac 0.3936139100853594 0.4186433235309958 0.3858066938781428 O
atom_frac 0.3936139078849382 0.0813566754756789 0.3858066924484581 O
atom_frac 0.6063860928489009 0.5813566747419405 0.6141933074540831 O
atom_frac 0.3573671891346064 0.4062124053816216 0.8544735978661978 O
atom_frac 0.6426328114616873 0.9062124064433335 0.1455264017676007 O
atom_frac 0.6426328117704782 0.5937875948200543 0.1455264018133349 O
atom_frac 0.3573671876205755 0.0937875937628442 0.8544735985554929 O
atom_frac 0.1348371125414490 0.9175750323308266 0.6365539721145715 O
atom_frac 0.8651628867657569 0.4175750328086864 0.3634460280904828 O
atom_frac 0.8651628858203682 0.0824249676545727 0.3634460279155987 O
atom_frac 0.1348371148798987 0.5824249672001842 0.6365539718748107 O
