#===============================================================================
# Created using the Atomic Simulation Environment (ASE)

# Sat Jun  7 22:00:48 2025

#=======================================================
lattice_vector 9.1913999999999998 0.0000000000000000 0.0000000000000000 
lattice_vector 0.0000000000000000 9.1913999999999998 0.0000000000000000 
lattice_vector 0.0000000000000000 0.0000000000000000 14.7944999999999993 
atom 2.2978499999999999 2.2978499999999999 1.4794499999999999 Ti
atom 0.0000000000000000 0.0000000000000000 0.0000000000000000 Ti
atom 0.8917798800000000 3.7039232000000002 1.4794499999999999 O
atom 3.7039201199999998 0.8917768000000000 1.4794499999999999 O
atom 1.4060701200000001 1.4060732000000000 0.0000000000000000 O
atom 3.1896298800000000 3.1896268000000001 0.0000000000000000 O
atom 2.2978499999999999 2.2978499999999999 4.4383499999999998 Ti
atom 0.0000000000000000 0.0000000000000000 2.9588999999999999 Ti
atom 0.8917798800000000 3.7039232000000002 4.4383499999999998 O
atom 3.7039201199999998 0.8917768000000000 4.4383499999999998 O
atom 1.4060701200000001 1.4060732000000000 2.9588999999999999 O
atom 3.1896298800000000 3.1896268000000001 2.9588999999999999 O
atom 2.2978499999999999 2.2978499999999999 7.3972499999999997 Ti
atom 0.0000000000000000 0.0000000000000000 5.9177999999999997 Ti
atom 0.8917798800000000 3.7039232000000002 7.3972499999999997 O
atom 3.7039201199999998 0.8917768000000000 7.3972499999999997 O
atom 1.4060701200000001 1.4060732000000000 5.9177999999999997 O
atom 3.1896298800000000 3.1896268000000001 5.9177999999999997 O
atom 2.2978499999999999 2.2978499999999999 10.3561499999999995 Ti
atom 0.0000000000000000 0.0000000000000000 8.8766999999999996 Ti
atom 0.8917798800000000 3.7039232000000002 10.3561499999999995 O
atom 3.7039201199999998 0.8917768000000000 10.3561499999999995 O
atom 1.4060701200000001 1.4060732000000000 8.8766999999999996 O
atom 3.1896298800000000 3.1896268000000001 8.8766999999999996 O
atom 2.2978499999999999 2.2978499999999999 13.3150499999999994 Ti
atom 0.0000000000000000 0.0000000000000000 11.8355999999999995 Ti
atom 0.8917798800000000 3.7039232000000002 13.3150499999999994 O
atom 3.7039201199999998 0.8917768000000000 13.3150499999999994 O
atom 1.4060701200000001 1.4060732000000000 11.8355999999999995 O
atom 3.1896298800000000 3.1896268000000001 11.8355999999999995 O
atom 2.2978499999999999 6.8935499999999994 1.4794499999999999 Ti
atom 0.0000000000000000 4.5956999999999999 0.0000000000000000 Ti
atom 0.8917798800000000 8.2996231999999992 1.4794499999999999 O
atom 3.7039201199999998 5.4874767999999996 1.4794499999999999 O
atom 1.4060701200000001 6.0017731999999997 0.0000000000000000 O
atom 3.1896298800000000 7.7853268000000000 0.0000000000000000 O
atom 2.2978499999999999 6.8935499999999994 4.4383499999999998 Ti
atom 0.0000000000000000 4.5956999999999999 2.9588999999999999 Ti
atom 0.8917798800000000 8.2996231999999992 4.4383499999999998 O
atom 3.7039201199999998 5.4874767999999996 4.4383499999999998 O
atom 1.4060701200000001 6.0017731999999997 2.9588999999999999 O
atom 3.1896298800000000 7.7853268000000000 2.9588999999999999 O
atom 2.2978499999999999 6.8935499999999994 7.3972499999999997 Ni
atom 0.0000000000000000 4.5956999999999999 5.9177999999999997 Ti
atom 0.8917798800000000 8.2996231999999992 7.3972499999999997 O
atom 3.7039201199999998 5.4874767999999996 7.3972499999999997 O
atom 1.4060701200000001 6.0017731999999997 5.9177999999999997 O
atom 3.1896298800000000 7.7853268000000000 5.9177999999999997 O
atom 2.2978499999999999 6.8935499999999994 10.3561499999999995 Ti
atom 0.0000000000000000 4.5956999999999999 8.8766999999999996 Ti
atom 0.8917798800000000 8.2996231999999992 10.3561499999999995 O
atom 3.7039201199999998 5.4874767999999996 10.3561499999999995 O
atom 1.4060701200000001 6.0017731999999997 8.8766999999999996 O
atom 3.1896298800000000 7.7853268000000000 8.8766999999999996 O
atom 2.2978499999999999 6.8935499999999994 13.3150499999999994 Ti
atom 0.0000000000000000 4.5956999999999999 11.8355999999999995 Ti
atom 0.8917798800000000 8.2996231999999992 13.3150499999999994 O
atom 3.7039201199999998 5.4874767999999996 13.3150499999999994 O
atom 1.4060701200000001 6.0017731999999997 11.8355999999999995 O
atom 3.1896298800000000 7.7853268000000000 11.8355999999999995 O
atom 6.8935499999999994 2.2978499999999999 1.4794499999999999 Ti
atom 4.5956999999999999 0.0000000000000000 0.0000000000000000 Ti
atom 5.4874798799999995 3.7039232000000002 1.4794499999999999 O
atom 8.2996201200000002 0.8917768000000000 1.4794499999999999 O
atom 6.0017701199999998 1.4060732000000000 0.0000000000000000 O
atom 7.7853298799999999 3.1896268000000001 0.0000000000000000 O
atom 6.8935499999999994 2.2978499999999999 4.4383499999999998 Ti
atom 4.5956999999999999 0.0000000000000000 2.9588999999999999 Ti
atom 5.4874798799999995 3.7039232000000002 4.4383499999999998 O
atom 8.2996201200000002 0.8917768000000000 4.4383499999999998 O
atom 6.0017701199999998 1.4060732000000000 2.9588999999999999 O
atom 7.7853298799999999 3.1896268000000001 2.9588999999999999 O
atom 6.8935499999999994 2.2978499999999999 7.3972499999999997 Ti
atom 4.5956999999999999 0.0000000000000000 5.9177999999999997 Ti
atom 5.4874798799999995 3.7039232000000002 7.3972499999999997 O
atom 8.2996201200000002 0.8917768000000000 7.3972499999999997 O
atom 6.0017701199999998 1.4060732000000000 5.9177999999999997 O
atom 7.7853298799999999 3.1896268000000001 5.9177999999999997 O
atom 6.8935499999999994 2.2978499999999999 10.3561499999999995 Ti
atom 4.5956999999999999 0.0000000000000000 8.8766999999999996 Ti
atom 5.4874798799999995 3.7039232000000002 10.3561499999999995 O
atom 8.2996201200000002 0.8917768000000000 10.3561499999999995 O
atom 6.0017701199999998 1.4060732000000000 8.8766999999999996 O
atom 7.7853298799999999 3.1896268000000001 8.8766999999999996 O
atom 6.8935499999999994 2.2978499999999999 13.3150499999999994 Ti
atom 4.5956999999999999 0.0000000000000000 11.8355999999999995 Ti
atom 5.4874798799999995 3.7039232000000002 13.3150499999999994 O
atom 8.2996201200000002 0.8917768000000000 13.3150499999999994 O
atom 6.0017701199999998 1.4060732000000000 11.8355999999999995 O
atom 7.7853298799999999 3.1896268000000001 11.8355999999999995 O
atom 6.8935499999999994 6.8935499999999994 1.4794499999999999 Ti
atom 4.5956999999999999 4.5956999999999999 0.0000000000000000 Ti
atom 5.4874798799999995 8.2996231999999992 1.4794499999999999 O
atom 8.2996201200000002 5.4874767999999996 1.4794499999999999 O
atom 6.0017701199999998 6.0017731999999997 0.0000000000000000 O
atom 7.7853298799999999 7.7853268000000000 0.0000000000000000 O
atom 6.8935499999999994 6.8935499999999994 4.4383499999999998 Ti
atom 4.5956999999999999 4.5956999999999999 2.9588999999999999 Ti
atom 5.4874798799999995 8.2996231999999992 4.4383499999999998 O
atom 8.2996201200000002 5.4874767999999996 4.4383499999999998 O
atom 6.0017701199999998 6.0017731999999997 2.9588999999999999 O
atom 7.7853298799999999 7.7853268000000000 2.9588999999999999 O
atom 6.8935499999999994 6.8935499999999994 7.3972499999999997 Ti
atom 4.5956999999999999 4.5956999999999999 5.9177999999999997 Ti
atom 5.4874798799999995 8.2996231999999992 7.3972499999999997 O
atom 8.2996201200000002 5.4874767999999996 7.3972499999999997 O
atom 6.0017701199999998 6.0017731999999997 5.9177999999999997 O
atom 7.7853298799999999 7.7853268000000000 5.9177999999999997 O
atom 6.8935499999999994 6.8935499999999994 10.3561499999999995 Ti
atom 4.5956999999999999 4.5956999999999999 8.8766999999999996 Ti
atom 5.4874798799999995 8.2996231999999992 10.3561499999999995 O
atom 8.2996201200000002 5.4874767999999996 10.3561499999999995 O
atom 6.0017701199999998 6.0017731999999997 8.8766999999999996 O
atom 7.7853298799999999 7.7853268000000000 8.8766999999999996 O
atom 6.8935499999999994 6.8935499999999994 13.3150499999999994 Ti
atom 4.5956999999999999 4.5956999999999999 11.8355999999999995 Ti
atom 5.4874798799999995 8.2996231999999992 13.3150499999999994 O
atom 8.2996201200000002 5.4874767999999996 13.3150499999999994 O
atom 6.0017701199999998 6.0017731999999997 11.8355999999999995 O
atom 7.7853298799999999 7.7853268000000000 11.8355999999999995 O
