#===============================================================================
# Created using the Atomic Simulation Environment (ASE)

# Thu Feb 13 14:17:40 2025

#=======================================================
lattice_vector 5.5869999999999997 0.0000000000000000 0.0000000000000000 
lattice_vector 0.0000000000000000 8.4130000000000003 0.0000000000000000 
lattice_vector -0.2492349000000000 0.0000000000000000 24.2027167500000004 
atom 2.1043102700000000 6.3097500000000002 1.0148749900000000 Al
atom 3.3996114300000002 2.1032500000000001 7.0526972600000004 Al
atom 4.8045190800000004 2.1032500000000001 4.0250946100000000 Al
atom 0.6994026200000000 6.3097500000000002 4.0424776400000004 Al
atom 4.8830218700000003 6.3097500000000002 1.0147626199999999 Al
atom 0.6208998300000000 2.1032500000000001 7.0528096299999996 Al
atom 3.3704358299999999 6.3097500000000002 6.0123509400000001 Al
atom 2.1334858699999999 2.1032500000000001 2.0552213099999999 Al
atom 1.9983332300000001 0.6355684400000000 4.9455186800000002 Al
atom 3.5055884700000002 4.8420684400000003 3.1220535699999998 Al
atom 3.5055884700000002 7.7774315600000001 3.1220535699999998 Al
atom 1.9983332300000001 3.5709315600000000 4.9455186800000002 Al
atom 0.5752701600000000 4.8720122999999997 6.9560414899999996 Al
atom 4.9286515399999997 0.6655122999999999 1.1115307600000000 Al
atom 4.9286515399999997 3.5409877000000001 1.1115307600000000 Al
atom 0.5752701600000000 7.7474876999999998 6.9560414899999996 Al
atom 4.8548674500000004 6.3097500000000002 7.0540267200000004 O
atom 0.6490542500000001 2.1032500000000001 1.0135455300000000 O
atom 3.3707901200000001 2.1032500000000001 5.1730176600000002 O
atom 2.1331315800000001 6.3097500000000002 2.8945545899999998 O
atom 1.9474293499999999 6.3097500000000002 7.1805985600000000 O
atom 3.5564923500000001 2.1032500000000001 0.8869736900000000 O
atom 0.6924970800000000 2.1032500000000001 5.0521144600000003 O
atom 4.8114246200000004 6.3097500000000002 3.0154577900000001 O
atom 4.8964299000000002 3.4038436900000000 7.2616083199999997 O
atom 0.6074918100000000 7.6103436899999997 0.8059639300000000 O
atom 0.6074918100000000 5.0091563099999998 0.8059639300000000 O
atom 4.8964299000000002 0.8026563100000000 7.2616083199999997 O
atom 3.3186841500000002 7.7164745400000001 4.9453841299999999 O
atom 2.1852375500000001 3.5099745400000000 3.1221881200000001 O
atom 2.1852375500000001 0.6965254600000000 3.1221881200000001 O
atom 3.3186841500000002 4.9030254600000003 4.9453841299999999 O
atom 1.9124136400000000 3.4052593600000001 6.8763230599999998 O
atom 3.5915080599999998 7.6117593599999998 1.1912491900000000 O
atom 3.5915080599999998 5.0077406399999997 1.1912491800000000 O
atom 1.9124136400000000 0.8012406399999999 6.8763230599999998 O
atom 0.7185629800000000 7.7098102199999996 5.1425389700000004 O
atom 4.7853587199999996 3.5033102299999999 2.9250332800000001 O
atom 4.7853587199999996 0.7031897800000000 2.9250332800000001 O
atom 0.7185629800000000 4.9096897700000000 5.1425389700000004 O
atom 2.0212319700000001 6.3097500000000002 9.0824472299999996 Al
atom 3.3165331299999998 2.1032500000000001 15.1202695100000000 Al
atom 4.7214407899999999 2.1032500000000001 12.0926668599999996 Al
atom 0.6163243200000000 6.3097500000000002 12.1100498800000000 Al
atom 4.7999435699999999 6.3097500000000002 9.0823348700000004 Al
atom 0.5378215300000000 2.1032500000000001 15.1203818800000001 Al
atom 3.2873575399999999 6.3097500000000002 14.0799231900000006 Al
atom 2.0504075700000000 2.1032500000000001 10.1227935599999999 Al
atom 1.9152549299999999 0.6355684400000000 13.0130909300000006 Al
atom 3.4225101699999998 4.8420684400000003 11.1896258199999998 Al
atom 3.4225101699999998 7.7774315600000001 11.1896258199999998 Al
atom 1.9152549299999999 3.5709315600000000 13.0130909300000006 Al
atom 0.4921918600000000 4.8720122999999997 15.0236137400000000 Al
atom 4.8455732400000002 0.6655122999999999 9.1791030100000004 Al
atom 4.8455732400000002 3.5409877000000001 9.1791030100000004 Al
atom 0.4921918600000000 7.7474876999999998 15.0236137400000000 Al
atom 4.7717891600000000 6.3097500000000002 15.1215989700000009 O
atom 0.5659759500000000 2.1032500000000001 9.0811177700000005 O
atom 3.2877118200000002 2.1032500000000001 13.2405899100000006 O
atom 2.0500532800000002 6.3097500000000002 10.9621268300000008 O
atom 1.8643510599999999 6.3097500000000002 15.2481708099999995 O
atom 3.4734140500000001 2.1032500000000001 8.9545459399999991 O
atom 0.6094187900000000 2.1032500000000001 13.1196867099999999 O
atom 4.7283463200000000 6.3097500000000002 11.0830300400000006 O
atom 4.8133515999999998 3.4038436900000000 15.3291805700000001 O
atom 0.5244135100000000 7.6103436899999997 8.8735361800000003 O
atom 0.5244135100000000 5.0091563099999998 8.8735361800000003 O
atom 4.8133515999999998 0.8026563100000000 15.3291805700000001 O
atom 3.2356058499999998 7.7164745400000001 13.0129563800000003 O
atom 2.1021592500000001 3.5099745400000000 11.1897603700000001 O
atom 2.1021592500000001 0.6965254600000000 11.1897603700000001 O
atom 1.8293353400000001 3.4052593600000001 14.9438953100000003 O
atom 3.5084297599999998 7.6117593599999998 9.2588214299999994 O
atom 3.5084297599999998 5.0077406399999997 9.2588214299999994 O
atom 1.8293353500000000 0.8012406399999999 14.9438953100000003 O
atom 0.6354846800000000 7.7098102199999996 13.2101112199999999 O
atom 4.7022804200000001 3.5033102299999999 10.9926055300000005 O
atom 4.7022804200000001 0.7031897800000000 10.9926055300000005 O
atom 0.6354846800000000 4.9096897700000000 13.2101112199999999 O
atom 1.9381536699999999 6.3097500000000002 17.1500194800000010 Al
atom 3.2334548299999999 2.1032500000000001 23.1878417600000013 Al
atom 4.6383624899999996 2.1032500000000001 20.1602391099999991 Al
atom 0.5332460200000000 6.3097500000000002 20.1776221299999996 Al
atom 4.7168652700000004 6.3097500000000002 17.1499071200000017 Al
atom 0.4547432400000000 2.1032500000000001 23.1879541300000014 Al
atom 3.2042792400000000 6.3097500000000002 22.1474954400000001 Al
atom 1.9673292700000000 2.1032500000000001 18.1903657999999986 Al
atom 1.8321766300000000 0.6355684400000000 21.0806631799999984 Al
atom 3.3394318699999999 4.8420684400000003 19.2571980700000012 Al
atom 3.3394318799999998 7.7774315600000001 19.2571980700000012 Al
atom 1.8321766300000000 3.5709315600000000 21.0806631799999984 Al
atom 0.4091135600000000 4.8720122999999997 23.0911859899999996 Al
atom 4.7624949399999998 0.6655122999999999 17.2466752600000000 Al
atom 4.7624949399999998 3.5409877000000001 17.2466752600000000 Al
atom 0.4091135600000000 7.7474876999999998 23.0911859899999996 Al
atom 4.6887108599999996 6.3097500000000002 23.1891712199999986 O
atom 0.4828976500000000 2.1032500000000001 17.1486900200000001 O
atom 3.2046335199999998 2.1032500000000001 21.3081621599999984 O
atom 1.9669749900000000 6.3097500000000002 19.0296990800000003 O
atom 1.7812727600000000 6.3097500000000002 23.3157430499999982 O
atom 3.3903357500000002 2.1032500000000001 17.0221181900000005 O
atom 0.5263404900000000 2.1032500000000001 21.1872589500000004 O
atom 4.6452680199999996 6.3097500000000002 19.1506022899999984 O
atom 4.7302733000000003 3.4038436900000000 23.3967528099999988 O
atom 0.4413352100000000 7.6103436899999997 16.9411084299999999 O
atom 0.4413352100000000 5.0091563099999998 16.9411084299999999 O
atom 4.7302733000000003 0.8026563100000000 23.3967528099999988 O
atom 3.1525275499999998 7.7164745400000001 21.0805286299999999 O
atom 2.0190809600000001 3.5099745400000000 19.2573326199999997 O
atom 2.0190809600000001 0.6965254600000000 19.2573326199999997 O
atom 3.1525275499999998 4.9030254600000003 21.0805286299999999 O
atom 1.7462570500000001 3.4052593600000001 23.0114675599999998 O
atom 3.4253514599999999 7.6117593599999998 17.3263936799999989 O
atom 3.4253514599999999 5.0077406399999997 17.3263936799999989 O
atom 1.7462570500000001 0.8012406399999999 23.0114675599999998 O
atom 0.5524063800000000 7.7098102199999996 21.2776834699999995 O
atom 4.6192021299999997 3.5033102299999999 19.0601777800000001 O
atom 4.6192021299999997 0.7031897800000000 19.0601777800000001 O
atom 0.5524063800000000 4.9096897700000000 21.2776834699999995 O
